c turning on binary mode checking
c parsing input formula with 202048 variables and 780990 clauses
c finished parsing, read 15580935 bytes from proof file
c detected empty clause; start verification via backward checking
c 10073 of 780990 clauses in core                            
c 7447 of 415494 lemmas in core using 99515 resolution steps
c 0 RAT lemmas in core; 599 redundant literals in core lemmas
s VERIFIED
c verification time: 2.161 seconds
